benchmarks_vrp/CMT4/fixed_c_size/CMT4_7.vrp
NAME: CMT4_7
TYPE: CVRP
COMMENT: 1028.42 - Cluster Nr.7
DIMENSION: 13
CAPACITY: 200
EDGE_WEIGHT_TYPE: EUC_2D
NODE_COORD_TYPE: TWOD_COORDS
NODE_COORD_SECTION: 
5 15 30
13 20 40
9 12 42
1 17 33
2 5 25
8 14 37
3 11 31
4 10 43
6 17 34
10 6 38
7 5 30
11 7 38
12 35 35
DEPOT_SECTION: 
12
-1
DEMAND_SECTION: 
2 23
11 28
7 2
4 9
9 21
10 16
5 26
12 0
6 3
13 12
1 41
8 11
3 7
EOF
