benchmarks_vrp/CMT4/fixed_c_size/CMT4_7.tour
NAME: CMT4_7 solution
TYPE: TOUR
TOUR_SECTION:
12 1 6 5 3 2 7 11 10 4 9 8 13 -1
-1
EOF